
Log started (V11.0.0) Sun Apr 13 14:08:51 2008

Tried aggregator 1 time.
Reduced MIP has 250 rows, 10001 columns, and 20050 nonzeros.
Presolve time =    0.08 sec.
Clique table members: 200.
MIP emphasis: balance optimality and feasibility.
MIP search method: dynamic search.
Parallel mode: none, using 1 thread.
Root relaxation solution time =    0.31 sec.

        Nodes                                         Cuts/
   Node  Left     Objective  IInf  Best Integer     Best Node    ItCnt     Gap

*     0+    0                        10493.0000       11.5646      993   99.89%
*     0+    0                           22.0000       11.5646      993   47.43%
      0     0       12.0000    67       22.0000      Fract: 5     1005   45.45%
*     0+    0                           20.0000       12.0000     1005   40.00%
      0     0       12.0000    73       20.0000   Impl Bds: 1     1015   40.00%
*     0+    0                           19.0000       12.0000     1015   36.84%
      0     0       12.0000    72       19.0000   Impl Bds: 1     1023   36.84%
*     0+    0                           18.0000       12.0000     1023   33.33%
*     0+    0                           17.0000       12.0000     1028   29.41%
*     0+    0                           16.0000       12.0000     1028   25.00%
*     0+    0                           15.0000       12.0000     1028   20.00%

Repeating presolve.
Tried aggregator 1 time.
MIP Presolve eliminated 2 rows and 8605 columns.
Aggregator did 8 substitutions.
Reduced MIP has 240 rows, 1388 columns, and 2824 nonzeros.
Tried aggregator 1 time.
Represolve time =    0.06 sec.
Clique table members: 635.
MIP emphasis: balance optimality and feasibility.
MIP search method: dynamic search.
Parallel mode: none, using 1 thread.
Root relaxation solution time =    0.05 sec.

        Nodes                                         Cuts/
   Node  Left     Objective  IInf  Best Integer     Best Node    ItCnt     Gap

      0     0       12.0000    73       15.0000       12.0000      439   20.00%
*     0+    0                           14.0000       12.0000      439   14.29%
      0     2       12.0000    70       14.0000       12.0000      448   14.29%
    100    90       13.0000    71       14.0000       13.0000     2580    7.14%
    200   179       13.0000    83       14.0000       13.0000     6408    7.14%
    300   263       13.0000    67       14.0000       13.0000    11824    7.14%
    400   341       13.0000    77       14.0000       13.0000    18726    7.14%
    500   429       13.0000    73       14.0000       13.0000    25350    7.14%
    600   470       13.0000    32       14.0000       13.0000    30022    7.14%
*   623     0      integral     0       13.0000       13.0000    31187    0.00%

Clique cuts applied:  13
Cover cuts applied:  69
Implied bound cuts applied:  1
Mixed integer rounding cuts applied:  37
Zero-half cuts applied:  6
Gomory fractional cuts applied:  4

Solution pool: 10 solutions saved.

MIP - Integer optimal solution:  Objective = 1.3000000000e+001
Solution time =   12.83 sec.  Iterations = 31187  Nodes = 624


Incumbent solution
Variable Name           Solution Value
Cmax                         13.000000
X_1_34                        1.000000
X_2_50                        1.000000
X_3_31                        1.000000
X_4_21                        1.000000
X_5_19                        1.000000
X_6_17                        1.000000
X_7_44                        1.000000
X_8_8                         1.000000
X_9_1                         1.000000
X_10_46                       1.000000
X_11_34                       1.000000
X_12_11                       1.000000
X_13_15                       1.000000
X_14_38                       1.000000
X_15_3                        1.000000
X_16_26                       1.000000
X_17_30                       1.000000
X_18_9                        1.000000
X_19_26                       1.000000
X_20_7                        1.000000
X_21_38                       1.000000
X_22_11                       1.000000
X_23_16                       1.000000
X_24_28                       1.000000
X_25_1                        1.000000
X_26_41                       1.000000
X_27_20                       1.000000
X_28_21                       1.000000
X_29_10                       1.000000
X_30_3                        1.000000
X_31_40                       1.000000
X_32_41                       1.000000
X_33_17                       1.000000
X_34_28                       1.000000
X_35_5                        1.000000
X_36_22                       1.000000
X_37_14                       1.000000
X_38_36                       1.000000
X_39_42                       1.000000
X_40_24                       1.000000
X_41_10                       1.000000
X_42_26                       1.000000
X_43_16                       1.000000
X_44_35                       1.000000
X_45_11                       1.000000
X_46_13                       1.000000
X_47_23                       1.000000
X_48_2                        1.000000
X_49_44                       1.000000
X_50_29                       1.000000
X_51_32                       1.000000
X_52_21                       1.000000
X_53_50                       1.000000
X_54_4                        1.000000
X_55_45                       1.000000
X_56_44                       1.000000
X_57_9                        1.000000
X_58_13                       1.000000
X_59_23                       1.000000
X_60_18                       1.000000
X_61_30                       1.000000
X_62_34                       1.000000
X_63_36                       1.000000
X_64_31                       1.000000
X_65_47                       1.000000
X_66_28                       1.000000
X_67_27                       1.000000
X_68_32                       1.000000
X_69_9                        1.000000
X_70_39                       1.000000
X_71_47                       1.000000
X_72_18                       1.000000
X_73_31                       1.000000
X_74_16                       1.000000
X_75_30                       1.000000
X_76_12                       1.000000
X_77_1                        1.000000
X_78_11                       1.000000
X_79_49                       1.000000
X_80_27                       1.000000
X_81_29                       1.000000
X_82_50                       1.000000
X_83_36                       1.000000
X_84_47                       1.000000
X_85_38                       1.000000
X_86_17                       1.000000
X_87_43                       1.000000
X_88_27                       1.000000
X_89_50                       1.000000
X_90_10                       1.000000
X_91_12                       1.000000
X_92_32                       1.000000
X_93_24                       1.000000
X_94_14                       1.000000
X_95_12                       1.000000
X_96_18                       1.000000
X_97_21                       1.000000
X_98_48                       1.000000
X_99_5                        1.000000
X_100_2                       1.000000
X_101_46                      1.000000
X_102_38                      1.000000
X_103_22                      1.000000
X_104_7                       1.000000
X_105_42                      1.000000
X_106_25                      1.000000
X_107_11                      1.000000
X_108_26                      1.000000
X_109_41                      1.000000
X_110_25                      1.000000
X_111_19                      1.000000
X_112_4                       1.000000
X_113_39                      1.000000
X_114_22                      1.000000
X_115_21                      1.000000
X_116_26                      1.000000
X_117_7                       1.000000
X_118_22                      1.000000
X_119_8                       1.000000
X_120_46                      1.000000
X_121_45                      1.000000
X_122_49                      1.000000
X_123_28                      1.000000
X_124_37                      1.000000
X_125_21                      1.000000
X_126_3                       1.000000
X_127_32                      1.000000
X_128_27                      1.000000
X_129_37                      1.000000
X_130_40                      1.000000
X_131_32                      1.000000
X_132_44                      1.000000
X_133_6                       1.000000
X_134_48                      1.000000
X_135_7                       1.000000
X_136_32                      1.000000
X_137_43                      1.000000
X_138_19                      1.000000
X_139_41                      1.000000
X_140_6                       1.000000
X_141_42                      1.000000
X_142_33                      1.000000
X_143_47                      1.000000
X_144_3                       1.000000
X_145_50                      1.000000
X_146_12                      1.000000
X_147_31                      1.000000
X_148_35                      1.000000
X_149_14                      1.000000
X_150_38                      1.000000
X_151_30                      1.000000
X_152_49                      1.000000
X_153_13                      1.000000
X_154_23                      1.000000
X_155_42                      1.000000
X_156_32                      1.000000
X_157_34                      1.000000
X_158_46                      1.000000
X_159_40                      1.000000
X_160_33                      1.000000
X_161_14                      1.000000
X_162_16                      1.000000
X_163_37                      1.000000
X_164_40                      1.000000
X_165_3                       1.000000
X_166_22                      1.000000
X_167_10                      1.000000
X_168_5                       1.000000
X_169_18                      1.000000
X_170_3                       1.000000
X_171_10                      1.000000
X_172_38                      1.000000
X_173_9                       1.000000
X_174_46                      1.000000
X_175_6                       1.000000
X_176_27                      1.000000
X_177_15                      1.000000
X_178_36                      1.000000
X_179_2                       1.000000
X_180_14                      1.000000
X_181_11                      1.000000
X_182_8                       1.000000
X_183_33                      1.000000
X_184_26                      1.000000
X_185_46                      1.000000
X_186_4                       1.000000
X_187_44                      1.000000
X_188_35                      1.000000
X_189_15                      1.000000
X_190_30                      1.000000
X_191_16                      1.000000
X_192_26                      1.000000
X_193_15                      1.000000
X_194_24                      1.000000
X_195_13                      1.000000
X_196_18                      1.000000
X_197_34                      1.000000
X_198_14                      1.000000
X_199_33                      1.000000
X_200_36                      1.000000
All other variables in the range 1-10001 are 0.
